p edge 70 350
e 1 3
e 1 8
e 1 36
e 1 46
e 1 55
e 2 1
e 2 5
e 2 25
e 2 38
e 2 46
e 3 1
e 3 8
e 3 15
e 3 24
e 3 67
e 4 19
e 4 27
e 4 29
e 4 39
e 4 51
e 5 10
e 5 30
e 5 52
e 5 64
e 5 65
e 6 13
e 6 23
e 6 27
e 6 29
e 6 61
e 7 5
e 7 23
e 7 25
e 7 47
e 7 50
e 8 1
e 8 25
e 8 26
e 8 50
e 8 61
e 9 8
e 9 29
e 9 58
e 9 62
e 9 70
e 10 18
e 10 43
e 10 56
e 10 63
e 10 63
e 11 7
e 11 12
e 11 31
e 11 37
e 11 40
e 12 14
e 12 35
e 12 36
e 12 42
e 12 70
e 13 20
e 13 30
e 13 32
e 13 41
e 13 60
e 14 12
e 14 18
e 14 30
e 14 32
e 14 68
e 15 6
e 15 30
e 15 48
e 15 68
e 15 69
e 16 34
e 16 37
e 16 48
e 16 54
e 16 67
e 17 36
e 17 37
e 17 37
e 17 40
e 17 44
e 18 21
e 18 29
e 18 32
e 18 33
e 18 55
e 19 4
e 19 8
e 19 11
e 19 40
e 19 40
e 20 6
e 20 11
e 20 39
e 20 39
e 20 46
e 21 10
e 21 19
e 21 33
e 21 47
e 21 54
e 22 6
e 22 7
e 22 12
e 22 13
e 22 62
e 23 9
e 23 36
e 23 40
e 23 45
e 23 64
e 24 11
e 24 27
e 24 29
e 24 42
e 24 64
e 25 5
e 25 21
e 25 45
e 25 45
e 25 55
e 26 18
e 26 25
e 26 35
e 26 37
e 26 64
e 27 16
e 27 18
e 27 22
e 27 60
e 27 62
e 28 3
e 28 8
e 28 12
e 28 29
e 28 57
e 29 38
e 29 49
e 29 52
e 29 55
e 29 66
e 30 2
e 30 3
e 30 29
e 30 50
e 30 66
e 31 16
e 31 17
e 31 24
e 31 39
e 31 68
e 32 19
e 32 26
e 32 30
e 32 34
e 32 69
e 33 7
e 33 24
e 33 35
e 33 39
e 33 54
e 34 14
e 34 31
e 34 57
e 34 59
e 34 63
e 35 5
e 35 9
e 35 19
e 35 29
e 35 59
e 36 7
e 36 48
e 36 68
e 36 68
e 36 70
e 37 15
e 37 21
e 37 44
e 37 64
e 37 66
e 38 1
e 38 5
e 38 16
e 38 53
e 38 70
e 39 10
e 39 21
e 39 26
e 39 35
e 39 57
e 40 13
e 40 28
e 40 33
e 40 57
e 40 65
e 41 35
e 41 36
e 41 47
e 41 48
e 41 58
e 42 19
e 42 23
e 42 35
e 42 38
e 42 52
e 43 34
e 43 37
e 43 59
e 43 59
e 43 70
e 44 2
e 44 9
e 44 24
e 44 41
e 44 63
e 45 2
e 45 2
e 45 36
e 45 46
e 45 61
e 46 29
e 46 31
e 46 36
e 46 41
e 46 51
e 47 43
e 47 45
e 47 53
e 47 57
e 47 67
e 48 3
e 48 16
e 48 26
e 48 27
e 48 69
e 49 15
e 49 22
e 49 23
e 49 38
e 49 59
e 50 19
e 50 31
e 50 33
e 50 45
e 50 57
e 51 11
e 51 18
e 51 20
e 51 30
e 51 39
e 52 2
e 52 4
e 52 51
e 52 58
e 52 62
e 53 5
e 53 11
e 53 24
e 53 32
e 53 54
e 54 7
e 54 20
e 54 27
e 54 40
e 54 62
e 55 14
e 55 59
e 55 60
e 55 64
e 55 65
e 56 41
e 56 47
e 56 50
e 56 66
e 56 67
e 57 5
e 57 11
e 57 41
e 57 45
e 57 48
e 58 3
e 58 4
e 58 28
e 58 47
e 58 67
e 59 26
e 59 27
e 59 29
e 59 30
e 59 34
e 60 3
e 60 8
e 60 9
e 60 31
e 60 33
e 61 20
e 61 27
e 61 31
e 61 50
e 61 60
e 62 11
e 62 12
e 62 23
e 62 57
e 62 58
e 63 2
e 63 12
e 63 14
e 63 66
e 63 70
e 64 10
e 64 42
e 64 45
e 64 62
e 64 70
e 65 12
e 65 18
e 65 32
e 65 46
e 65 61
e 66 1
e 66 5
e 66 49
e 66 53
e 66 58
e 67 3
e 67 25
e 67 29
e 67 41
e 67 49
e 68 11
e 68 15
e 68 27
e 68 50
e 68 52
e 69 13
e 69 33
e 69 53
e 69 55
e 69 65
e 70 3
e 70 11
e 70 44
e 70 56
e 70 66
